Route #1: 1 37 31 49 53 41 30 26 1
Route #2: 1 21 63 51 29 58 33 12 35 48 52 1
Route #3: 1 18 14 27 5 39 8 1
Route #4: 1 60 11 20 4 43 6 19 50 40 46 42 22 1
Route #5: 1 9 28 36 7 10 1
Route #6: 1 57 16 17 55 62 1
Route #7: 1 32 45 59 23 25 24 1
Route #8: 1 44 2 15 3 13 54 1
Route #9: 1 38 47 1
Route #10: 1 61 34 56 1
cost 1689
